
n_res = 4;
rcap = [38, 42, 402, 377];
rtype = [1, 1, 2, 2];
n_tasks = 100;
modes =  [{1, 2, 3}, {4, 5, 6}, {7, 8, 9}, {10, 11, 12}, {13, 14, 15}, {16, 17, 18}, {19, 20, 21}, {22, 23, 24}, {25, 26, 27}, {28, 29, 30}, {31, 32, 33}, {34, 35, 36}, {37, 38, 39}, {40, 41, 42}, {43, 44, 45}, {46, 47, 48}, {49, 50, 51}, {52, 53, 54}, {55, 56, 57}, {58, 59, 60}, {61, 62, 63}, {64, 65, 66}, {67, 68, 69}, {70, 71, 72}, {73, 74, 75}, {76, 77, 78}, {79, 80, 81}, {82, 83, 84}, {85, 86, 87}, {88, 89, 90}, {91, 92, 93}, {94, 95, 96}, {97, 98, 99}, {100, 101, 102}, {103, 104, 105}, {106, 107, 108}, {109, 110, 111}, {112, 113, 114}, {115, 116, 117}, {118, 119, 120}, {121, 122, 123}, {124, 125, 126}, {127, 128, 129}, {130, 131, 132}, {133, 134, 135}, {136, 137, 138}, {139, 140, 141}, {142, 143, 144}, {145, 146, 147}, {148, 149, 150}, {151, 152, 153}, {154, 155, 156}, {157, 158, 159}, {160, 161, 162}, {163, 164, 165}, {166, 167, 168}, {169, 170, 171}, {172, 173, 174}, {175, 176, 177}, {178, 179, 180}, {181, 182, 183}, {184, 185, 186}, {187, 188, 189}, {190, 191, 192}, {193, 194, 195}, {196, 197, 198}, {199, 200, 201}, {202, 203, 204}, {205, 206, 207}, {208, 209, 210}, {211, 212, 213}, {214, 215, 216}, {217, 218, 219}, {220, 221, 222}, {223, 224, 225}, {226, 227, 228}, {229, 230, 231}, {232, 233, 234}, {235, 236, 237}, {238, 239, 240}, {241, 242, 243}, {244, 245, 246}, {247, 248, 249}, {250, 251, 252}, {253, 254, 255}, {256, 257, 258}, {259, 260, 261}, {262, 263, 264}, {265, 266, 267}, {268, 269, 270}, {271, 272, 273}, {274, 275, 276}, {277, 278, 279}, {280, 281, 282}, {283, 284, 285}, {286, 287, 288}, {289, 290, 291}, {292, 293, 294}, {295, 296, 297}, {298, 299, 300}];
succ =  [{100, 61, 54, 53, 41, 37, 34, 14, 6}, {100, 71, 70, 58, 54, 53, 52, 51, 49, 43, 40, 36, 34, 32, 27}, {99, 97, 96, 94, 91, 89, 71, 67, 66, 58, 57, 56, 54, 53, 51, 50, 43, 42, 30}, {98, 95, 70, 68, 66, 57, 48, 46, 45, 42, 41, 40, 36, 28}, {97, 95, 93, 80, 71, 69, 66, 65, 64, 59, 58, 54, 48, 45, 37, 33}, {99, 94, 90, 89, 77, 71, 70, 69, 68, 67, 66, 62, 58, 55, 49, 48, 27}, {95, 92, 91, 89, 88, 83, 69, 66, 65, 43, 40, 33}, {94, 89, 82, 71, 67, 64, 58, 57, 55, 54, 53, 50, 44, 42}, {98, 95, 94, 91, 69, 66, 65, 64, 58, 50, 42, 33}, {95, 86, 84, 67, 65, 54, 44, 42, 40, 37}, {95, 93, 92, 89, 69, 64, 59, 54, 48, 44, 33}, {98, 97, 96, 95, 90, 89, 88, 85, 80, 76, 70, 66, 65, 64, 62, 53, 48, 39}, {100, 98, 97, 95, 93, 92, 91, 90, 85, 80, 79, 78, 66, 64, 62, 59, 56, 54, 41}, {97, 96, 94, 93, 91, 90, 79, 77, 69, 57, 56, 51, 50, 48}, {99, 96, 94, 92, 89, 85, 83, 78, 70, 66, 64, 57, 52, 43}, {95, 92, 91, 89, 83, 81, 78, 77, 76, 70, 69, 54, 51, 42}, {100, 97, 96, 90, 89, 86, 84, 83, 82, 81, 80, 79, 78, 76, 70, 66, 64, 63, 61, 58}, {97, 93, 88, 87, 84, 82, 81, 77, 75, 67, 66, 61, 53, 52, 44}, {100, 96, 94, 92, 91, 90, 86, 83, 82, 81, 78, 76, 74, 66, 65, 64, 58, 57, 54}, {98, 91, 89, 83, 82, 80, 77, 76, 70, 67, 66, 65, 62, 58, 57, 53}, {94, 89, 87, 83, 76, 64, 58, 57, 51, 43}, {98, 97, 94, 91, 90, 88, 82, 80, 79, 78, 76, 75, 74, 67, 66, 63, 45}, {97, 96, 95, 93, 88, 87, 84, 82, 81, 80, 79, 78, 76, 67, 66, 46}, {98, 96, 95, 94, 91, 90, 88, 84, 83, 81, 79, 78, 77, 76, 63, 62, 51}, {97, 96, 93, 92, 91, 89, 87, 85, 82, 79, 78, 77, 75, 74, 67, 54, 52}, {100, 97, 90, 85, 83, 82, 80, 78, 76, 75, 66, 62, 45}, {97, 93, 92, 88, 87, 86, 85, 83, 82, 81, 79, 76, 74, 72, 65, 60, 57}, {97, 89, 87, 83, 82, 81, 80, 79, 76, 67, 65, 64, 61, 58}, {94, 90, 89, 87, 86, 84, 82, 79, 77, 72, 61, 49}, {93, 82, 80, 79, 78, 73, 69, 64, 62, 59, 52}, {94, 92, 91, 90, 88, 85, 82, 80, 77, 76, 75, 73, 62, 53}, {98, 94, 91, 87, 86, 80, 78, 67, 66, 65, 61, 57}, {99, 90, 87, 86, 85, 82, 81, 79, 77, 76, 68, 61, 57}, {99, 89, 88, 87, 86, 85, 79, 78, 76, 74, 73, 72, 68, 64}, {100, 85, 82, 80, 77, 76, 75, 74, 54, 53}, {94, 90, 89, 87, 85, 80, 78, 76, 75, 74, 56}, {98, 96, 91, 89, 85, 81, 76, 74, 56}, {93, 90, 86, 83, 80, 75, 72, 64, 57}, {94, 93, 92, 91, 86, 82, 81, 79, 78, 75, 72}, {96, 94, 93, 82, 81, 78, 75, 64, 63}, {96, 89, 87, 84, 83, 81, 76, 75, 74, 72}, {93, 87, 79, 75, 73, 63, 61}, {90, 81, 80, 79, 72, 68, 62}, {91, 90, 80, 79, 73, 63, 62}, {92, 89, 87, 86, 81, 77, 73, 72}, {91, 89, 85, 77, 75, 73, 62}, {92, 84, 83, 78, 75, 63}, {87, 84, 78, 74, 73, 72}, {95, 85, 83, 81, 76, 73}, {92, 83, 81, 80, 76}, {82, 80, 73, 65}, {95, 86, 76, 63}, {79, 78, 63}, {88, 73, 72}, {86, 80, 73}, {83, 63}, {84, 73}, {88, 85}, {83, 75}, {78, 73}, {62}, {74}, {72}, {77}, {75}, {73}, {72}, {84}, {86}, {75}, {72}, {}, {}, {}, {}, {}, {}, {}, {}, {}, {}, {}, {}, {}, {}, {}, {}, {}, {}, {}, {}, {}, {}, {}, {}, {}, {}, {}, {}, {}];
n_opt = 300;
dur = [3, 5, 7, 3, 5, 8, 1, 10, 10, 4, 5, 6, 1, 4, 9, 3, 9, 9, 2, 4, 7, 4, 5, 10, 1, 3, 4, 1, 2, 10, 1, 5, 9, 4, 4, 7, 4, 4, 6, 7, 9, 10, 2, 3, 8, 1, 1, 5, 1, 3, 5, 4, 7, 8, 1, 6, 7, 5, 10, 10, 1, 3, 10, 1, 2, 9, 4, 5, 10, 5, 8, 9, 6, 7, 8, 8, 8, 10, 6, 7, 10, 3, 6, 8, 1, 6, 10, 1, 8, 9, 2, 4, 10, 5, 6, 7, 6, 7, 8, 4, 6, 6, 2, 7, 10, 1, 4, 7, 7, 7, 8, 1, 4, 4, 1, 2, 5, 1, 3, 10, 1, 1, 2, 2, 6, 10, 4, 4, 8, 1, 5, 5, 2, 5, 10, 1, 5, 5, 1, 2, 7, 3, 5, 6, 7, 7, 9, 2, 9, 10, 6, 6, 10, 2, 3, 8, 2, 4, 4, 3, 4, 6, 5, 9, 10, 5, 9, 10, 1, 4, 5, 2, 3, 9, 1, 2, 8, 4, 4, 6, 1, 4, 8, 3, 5, 10, 4, 9, 9, 6, 7, 8, 4, 6, 9, 2, 7, 8, 2, 5, 8, 4, 5, 8, 1, 5, 8, 1, 4, 10, 1, 3, 10, 3, 5, 6, 2, 2, 9, 5, 8, 10, 3, 6, 8, 3, 7, 8, 2, 3, 8, 7, 8, 9, 5, 6, 7, 3, 4, 8, 2, 3, 4, 1, 7, 9, 1, 2, 9, 1, 4, 6, 2, 4, 8, 3, 8, 10, 1, 4, 4, 6, 7, 8, 2, 4, 10, 1, 1, 8, 2, 7, 9, 2, 6, 8, 4, 8, 9, 6, 7, 9, 1, 4, 7, 1, 4, 6, 2, 5, 7, 6, 7, 7, 2, 2, 8, 4, 6, 7];
rreq = [|2, 0, 0, 0, 0, 0, 0, 0, 0, 8, 8, 8, 0, 8, 8, 6, 3, 2, 4, 4, 4, 0, 0, 0, 0, 6, 0, 0, 0, 0, 3, 0, 2, 7, 0, 5, 10, 6, 4, 8, 7, 7, 7, 0, 0, 0, 7, 6, 7, 6, 4, 0, 4, 3, 0, 0, 0, 4, 2, 2, 0, 0, 2, 0, 0, 0, 4, 0, 0, 0, 5, 5, 0, 8, 0, 0, 0, 0, 0, 7, 4, 7, 0, 1, 0, 2, 0, 0, 0, 2, 2, 2, 2, 4, 3, 0, 0, 4, 3, 0, 0, 0, 0, 7, 7, 0, 0, 3, 2, 0, 0, 5, 0, 2, 4, 4, 4, 0, 0, 6, 0, 8, 6, 0, 0, 7, 0, 0, 0, 0, 8, 0, 0, 8, 0, 0, 3, 2, 10, 8, 0, 4, 0, 4, 7, 3, 0, 0, 9, 0, 0, 0, 2, 7, 5, 0, 8, 7, 0, 0, 0, 4, 4, 4, 4, 5, 5, 0, 8, 0, 0, 10, 0, 0, 0, 0, 3, 8, 0, 0, 4, 4, 0, 0, 6, 0, 0, 8, 0, 0, 0, 0, 8, 0, 0, 3, 3, 3, 0, 4, 0, 7, 6, 5, 6, 0, 0, 7, 0, 5, 10, 10, 0, 0, 0, 5, 6, 0, 0, 0, 0, 0, 0, 4, 0, 7, 6, 0, 6, 0, 5, 0, 7, 0, 4, 4, 0, 0, 0, 2, 0, 9, 8, 0, 9, 0, 1, 1, 1, 0, 5, 0, 0, 7, 0, 0, 0, 0, 0, 0, 0, 0, 0, 0, 0, 5, 5, 0, 2, 2, 0, 0, 7, 0, 0, 0, 7, 4, 2, 5, 0, 0, 7, 0, 0, 8, 0, 2, 0, 0, 6, 5, 4, 4, 0, 8, 0, 0, 5, 5
 |0, 3, 3, 8, 7, 7, 4, 3, 3, 0, 0, 0, 4, 0, 0, 0, 0, 0, 0, 0, 0, 10, 9, 9, 7, 0, 6, 6, 5, 4, 0, 5, 0, 0, 7, 0, 0, 0, 0, 0, 0, 0, 0, 7, 7, 6, 0, 0, 0, 0, 0, 10, 0, 0, 3, 1, 1, 0, 0, 0, 9, 8, 0, 4, 2, 2, 0, 3, 3, 5, 0, 0, 8, 0, 5, 7, 4, 1, 6, 0, 0, 0, 6, 0, 9, 0, 5, 9, 8, 0, 0, 0, 0, 0, 0, 1, 4, 0, 0, 7, 4, 2, 5, 0, 0, 9, 7, 0, 0, 6, 5, 0, 7, 0, 0, 0, 0, 5, 3, 0, 3, 0, 0, 5, 4, 0, 7, 5, 3, 8, 0, 6, 8, 0, 5, 8, 0, 0, 0, 0, 3, 0, 6, 0, 0, 0, 4, 3, 0, 1, 5, 5, 0, 0, 0, 4, 0, 0, 7, 6, 6, 0, 0, 0, 0, 0, 0, 6, 0, 6, 6, 0, 5, 5, 4, 3, 0, 0, 3, 3, 0, 0, 2, 10, 0, 7, 9, 0, 8, 10, 4, 2, 0, 6, 5, 0, 0, 0, 4, 0, 4, 0, 0, 0, 0, 3, 3, 0, 9, 0, 0, 0, 6, 7, 7, 0, 0, 5, 3, 7, 6, 5, 7, 0, 2, 0, 0, 7, 0, 5, 0, 9, 0, 7, 0, 0, 2, 8, 8, 0, 10, 0, 0, 8, 0, 5, 0, 0, 0, 4, 0, 2, 6, 0, 2, 6, 6, 6, 10, 9, 8, 9, 6, 5, 4, 0, 0, 8, 0, 0, 4, 3, 0, 9, 5, 3, 0, 0, 0, 0, 4, 3, 0, 5, 4, 0, 3, 0, 8, 5, 0, 0, 0, 0, 6, 0, 3, 6, 0, 0
 |0, 7, 4, 7, 6, 0, 6, 5, 0, 0, 0, 0, 9, 0, 5, 8, 0, 4, 6, 5, 0, 0, 0, 2, 0, 4, 4, 7, 6, 0, 8, 6, 0, 4, 0, 0, 8, 0, 7, 6, 0, 2, 10, 4, 0, 0, 0, 0, 0, 0, 1, 0, 0, 0, 0, 4, 3, 0, 0, 2, 0, 0, 3, 10, 4, 0, 5, 3, 0, 7, 0, 0, 2, 2, 0, 0, 5, 3, 8, 0, 0, 0, 5, 3, 4, 3, 0, 0, 0, 0, 9, 0, 8, 0, 0, 0, 3, 0, 1, 9, 8, 0, 0, 6, 0, 10, 10, 0, 0, 7, 0, 2, 2, 2, 0, 0, 4, 0, 6, 6, 0, 0, 3, 9, 4, 3, 0, 4, 2, 6, 0, 0, 9, 0, 6, 6, 0, 4, 0, 0, 0, 9, 0, 8, 0, 1, 0, 4, 2, 1, 0, 4, 0, 10, 0, 10, 8, 4, 1, 10, 9, 0, 0, 4, 0, 9, 6, 0, 9, 0, 0, 0, 3, 2, 0, 0, 0, 8, 6, 0, 3, 0, 3, 0, 2, 2, 9, 9, 0, 0, 0, 0, 8, 0, 6, 8, 0, 0, 7, 0, 0, 0, 8, 7, 8, 7, 0, 0, 9, 0, 8, 7, 0, 0, 5, 0, 7, 0, 5, 8, 7, 5, 3, 0, 0, 7, 6, 0, 0, 3, 2, 9, 0, 8, 6, 0, 4, 0, 7, 0, 0, 0, 0, 0, 4, 3, 0, 6, 5, 10, 0, 4, 0, 0, 7, 6, 5, 4, 4, 4, 0, 0, 0, 1, 0, 0, 0, 4, 0, 4, 8, 7, 0, 7, 6, 4, 0, 2, 0, 1, 1, 0, 0, 4, 0, 5, 4, 0, 0, 0, 0, 7, 5, 0, 8, 0, 7, 2, 0, 1
 |6, 0, 0, 0, 0, 2, 0, 0, 2, 7, 6, 5, 0, 8, 0, 0, 6, 0, 0, 0, 3, 5, 4, 0, 7, 0, 0, 0, 0, 2, 0, 0, 3, 0, 4, 4, 0, 7, 0, 0, 1, 0, 0, 0, 4, 5, 5, 4, 3, 2, 0, 4, 4, 4, 7, 0, 0, 4, 3, 0, 4, 4, 0, 0, 0, 4, 0, 0, 1, 0, 3, 2, 0, 0, 5, 8, 0, 0, 0, 9, 9, 8, 0, 0, 0, 0, 1, 6, 6, 6, 0, 5, 0, 8, 8, 7, 0, 7, 0, 0, 0, 1, 10, 0, 9, 0, 0, 9, 7, 0, 5, 0, 0, 0, 5, 4, 0, 6, 0, 0, 9, 6, 0, 0, 0, 0, 9, 0, 0, 0, 1, 1, 0, 6, 0, 0, 2, 0, 5, 3, 3, 0, 4, 0, 9, 0, 8, 0, 0, 0, 6, 0, 2, 0, 5, 0, 0, 0, 0, 0, 0, 2, 6, 0, 5, 0, 0, 5, 0, 4, 3, 9, 0, 0, 2, 1, 1, 0, 0, 5, 0, 3, 0, 6, 0, 0, 0, 0, 5, 2, 2, 2, 0, 5, 0, 0, 8, 7, 0, 4, 4, 2, 0, 0, 0, 0, 6, 4, 0, 4, 0, 0, 4, 10, 0, 10, 0, 2, 0, 0, 0, 0, 0, 6, 2, 0, 0, 6, 9, 0, 0, 0, 4, 0, 0, 8, 0, 7, 0, 4, 8, 7, 4, 8, 0, 0, 4, 0, 0, 0, 6, 0, 2, 2, 0, 0, 0, 0, 0, 0, 3, 7, 5, 0, 7, 6, 4, 0, 5, 0, 0, 0, 4, 0, 0, 0, 8, 0, 7, 0, 0, 9, 6, 0, 4, 0, 0, 4, 3, 3, 3, 0, 0, 3, 0, 9, 0, 0, 6, 0|];